DATASET = "thpack2";
INSTANCE = "040";

WIDTH = 233;
HEIGHT = 220;
LENGTH = 587;

NO_OF_SHAPES = 5;
size = [|
  85,77,62 |
  94,63,32 |
  83,75,45 |
  95,95,54 |
  76,76,30 |
|];

verticality = [|
  1,1,1 |
  0,1,1 |
  1,1,1 |
  1,1,1 |
  0,0,1 |
|];

box_count = [
  13,
  19,
  21,
  24,
  19,
];
